p cnf 37 26
d 0.875 0.125
d 0.875 0.125
d 0.875 0.125
d 0.875 0.125
d 0.875 0.125
d 0.875 0.125
d 0.875 0.125
d 0.875 0.125
d 0.875 0.125
d 0.875 0.125
d 0.875 0.125
d 0.875 0.125
32
-29
29 -30 -0
30 -29 -0
29 -30 -2
30 -29 -2
34 -27 -4
27 -34 -4
34 -31 -6
31 -34 -6
28 -30 -8
30 -28 -8
34 -32 -10
32 -34 -10
36 -24 -12
24 -36 -12
29 -33 -14
33 -29 -14
33 -25 -16
25 -33 -16
34 -35 -18
35 -34 -18
36 -29 -20
29 -36 -20
34 -33 -22
33 -34 -22